proyfinal/src/viki/013/experimentInOfficeAgust.take6.output/c065de93-cac6-4a12-ab99-85d101070d93.als.dat
{'cnf.clauses': '118081',
 'cnf.totvars': '69608',
 'conflict literals': '60',
 'conflicts': '19',
 'decisions': '7361',
 'memused.mb': '17.48',
 'outcome': 'UNSAT',
 'propagations': '31436',
 'restarts': '1',
 'solver.msecs': 28,
 'task.msecs': 73}
