proyfinal/src/viki/013/experimentInOfficeAgust.take6.output/c065de93-cac6-4a12-ab99-85d101070d93.als.out
Reading from standard input... Use '--help' for help.
============================[ Problem Statistics ]=============================
|                                                                             |
|  Number of variables:         69608                                         |
|  Number of clauses:          118081                                         |
|  Parse time:                   0.02 s                                       |
|                                                                             |
============================[ Search Statistics ]==============================
| Conflicts |          ORIGINAL         |          LEARNT          | Progress |
|           |    Vars  Clauses Literals |    Limit  Clauses Lit/Cl |          |
===============================================================================
===============================================================================
restarts              : 1
conflicts             : 19             (657 /sec)
decisions             : 7361           (0.00 % random) (254380 /sec)
propagations          : 31436          (1086360 /sec)
conflict literals     : 60             (0.00 % deleted)
Memory used           : 17.48 MB
CPU time              : 0.028937 s

UNSATISFIABLE
